matp6620/spr17/hw6sol/cfl.dat
param m:=3;
param n:=3;

param f := 1 1 2 1 3 1;

param s := 1 3 2 3 3 3;

param d := 1 1 2 1 3 1;

param c:
       1  2  3 :=
   1   1  0  0
   2   0  1  0
   3   0  0  1
;
