matp6620/spr17/hw6sol/cfl.out
ampl: solve LPrelax;
CPLEX 12.7.1.0: CPXPARAM_Simplex_Display                         0
CPXPARAM_MIP_Display                             0
CPXPARAM_Barrier_Display                         0
optimal solution; objective 1.5
0 simplex iterations (0 in phase I)
ampl: display x,y;
x [*] :=
1  0.5
2  0.5
3  0.5
;

y :=
1 1   0
1 2   0.5
1 3   0.5
2 1   0.5
2 2   0
2 3   0.5
3 1   0.5
3 2   0.5
3 3   0
;


ampl: solve zSC;
CPLEX 12.7.1.0: CPXPARAM_Simplex_Display                         0
CPXPARAM_MIP_Display                             0
CPXPARAM_MIP_Pool_Capacity                       0
CPXPARAM_Barrier_Display                         0
optimal integer solution; objective 2
7 MIP simplex iterations
0 branch-and-bound nodes
No basis.
ampl: display x,y,u;
x [*] :=
1  1
2  0
3  0
;

y :=
1 1   1
1 2   0
1 3   0
2 1   1
2 2   0
2 3   0
3 1   1
3 2   0
3 3   0
;

u [*] :=
1  0
2  0
3  0
;


ampl: solve IP;
CPLEX 12.7.1.0: CPXPARAM_Simplex_Display                         0
CPXPARAM_MIP_Display                             0
CPXPARAM_MIP_Pool_Capacity                       0
CPXPARAM_Barrier_Display                         0
optimal integer solution; objective 2
11 MIP simplex iterations
0 branch-and-bound nodes
No basis.
ampl: display x,y;
x [*] :=
1  1
2  0
3  0
;

y :=
1 1   1
1 2   0
1 3   0
2 1   1
2 2   0
2 3   0
3 1   1
3 2   0
3 3   0
;

